
Gurobi 11.0.3 (linux64) logging started Fri Nov 22 15:27:02 2024

Set parameter LogFile to value "/home/yihong/Coding/OR_SUC/SUC_results_bigM100000_thread4/case24_ieee_rts_theta0.5_epsilon0.025_gurobi_seed670000_num_gen100_N_WDR100_load_scaling_factor1_exact_T20quadra_cost.txt"
Set parameter TimeLimit to value 3600
Gurobi Optimizer version 11.0.3 build v11.0.3rc0 (linux64 - "Ubuntu 20.04.6 LTS")

CPU model: AMD EPYC 7532 32-Core Processor, instruction set [SSE2|AVX|AVX2]
Thread count: 64 physical cores, 128 logical processors, using up to 4 threads

Optimize a model with 43303 rows, 25001 columns and 593882 nonzeros
Model fingerprint: 0xd655913d
Model has 2000 quadratic constraints
Variable types: 22901 continuous, 2100 integer (2100 binary)
Coefficient statistics:
  Matrix range     [3e-04, 1e+05]
  QMatrix range    [2e-03, 8e-03]
  QLMatrix range   [4e-02, 6e+01]
  Objective range  [1e+00, 1e+00]
  Bounds range     [1e+00, 1e+00]
  RHS range        [1e+00, 1e+05]
Presolve removed 35128 rows and 10885 columns
Presolve time: 0.20s
Presolved: 8175 rows, 14116 columns, 51098 nonzeros
Presolved model has 2000 quadratic constraint(s)
Variable types: 12067 continuous, 2049 integer (2049 binary)

Root relaxation: objective 5.627889e+04, 6471 iterations, 0.14 seconds (0.21 work units)

    Nodes    |    Current Node    |     Objective Bounds      |     Work
 Expl Unexpl |  Obj  Depth IntInf | Incumbent    BestBd   Gap | It/Node Time

     0     0 56278.8931    0    3          - 56278.8931      -     -    0s
     0     0 295598.658    0  676          - 295598.658      -     -    0s
     0     0 493738.439    0  718          - 493738.439      -     -    1s
     0     0 493777.173    0  399          - 493777.173      -     -    1s
     0     0 494379.911    0  255          - 494379.911      -     -    1s
     0     0 494441.991    0  257          - 494441.991      -     -    1s
     0     0 494576.667    0  255          - 494576.667      -     -    1s
     0     0 494585.822    0  256          - 494585.822      -     -    1s
     0     0 494635.967    0  256          - 494635.967      -     -    1s
     0     2 494635.967    0  256          - 494635.967      -     -    1s
H  443   347                    494728.44649 494645.232  0.02%  27.5    3s
*  443   347             134    494728.44649 494645.232  0.02%  27.7    3s

Cutting planes:
  Gomory: 12
  Implied bound: 347
  MIR: 125
  Flow cover: 318

Explored 465 nodes (31206 simplex iterations) in 4.26 seconds (4.78 work units)
Thread count was 4 (of 128 available processors)

Solution count 2: 494728 494728 

Optimal solution found (tolerance 1.00e-03)
Warning: max constraint violation (1.5706e-07) exceeds tolerance
Best objective 4.947284464902e+05, best bound 4.946452317729e+05, gap 0.0168%
